c nIsolatedPIs 0
c maxPI 20
p cnf 672 1957
c gate 21 10 12 0
10 -21 0
12 -21 0
-10 -12 21 0
c gate 22 9 13 0
9 -22 0
13 -22 0
-9 -13 22 0
c gate 23 21 22 0
21 -23 0
22 -23 0
-21 -22 23 0
c gate 24 -21 -22 0
-21 -24 0
-22 -24 0
21 22 24 0
c gate 25 -23 -24 0
-23 -25 0
-24 -25 0
23 24 25 0
c gate 26 9 12 0
9 -26 0
12 -26 0
-9 -12 26 0
c gate 27 10 11 0
10 -27 0
11 -27 0
-10 -11 27 0
c gate 28 26 27 0
26 -28 0
27 -28 0
-26 -27 28 0
c gate 29 8 13 0
8 -29 0
13 -29 0
-8 -13 29 0
c gate 30 -26 -27 0
-26 -30 0
-27 -30 0
26 27 30 0
c gate 31 -28 -30 0
-28 -31 0
-30 -31 0
28 30 31 0
c gate 32 29 31 0
29 -32 0
31 -32 0
-29 -31 32 0
c gate 33 -28 -32 0
-28 -33 0
-32 -33 0
28 32 33 0
c gate 34 25 -33 0
25 -34 0
-33 -34 0
-25 33 34 0
c gate 35 6 16 0
6 -35 0
16 -35 0
-6 -16 35 0
c gate 36 8 14 0
8 -36 0
14 -36 0
-8 -14 36 0
c gate 37 7 15 0
7 -37 0
15 -37 0
-7 -15 37 0
c gate 38 -36 -37 0
-36 -38 0
-37 -38 0
36 37 38 0
c gate 39 36 37 0
36 -39 0
37 -39 0
-36 -37 39 0
c gate 40 -38 -39 0
-38 -40 0
-39 -40 0
38 39 40 0
c gate 41 -35 -40 0
-35 -41 0
-40 -41 0
35 40 41 0
c gate 42 35 40 0
35 -42 0
40 -42 0
-35 -40 42 0
c gate 43 -41 -42 0
-41 -43 0
-42 -43 0
41 42 43 0
c gate 44 -25 33 0
-25 -44 0
33 -44 0
25 -33 44 0
c gate 45 -34 -44 0
-34 -45 0
-44 -45 0
34 44 45 0
c gate 46 43 45 0
43 -46 0
45 -46 0
-43 -45 46 0
c gate 47 -34 -46 0
-34 -47 0
-46 -47 0
34 46 47 0
c gate 48 7 16 0
7 -48 0
16 -48 0
-7 -16 48 0
c gate 49 8 15 0
8 -49 0
15 -49 0
-8 -15 49 0
c gate 50 9 14 0
9 -50 0
14 -50 0
-9 -14 50 0
c gate 51 -49 -50 0
-49 -51 0
-50 -51 0
49 50 51 0
c gate 52 49 50 0
49 -52 0
50 -52 0
-49 -50 52 0
c gate 53 -51 -52 0
-51 -53 0
-52 -53 0
51 52 53 0
c gate 54 -48 -53 0
-48 -54 0
-53 -54 0
48 53 54 0
c gate 55 48 53 0
48 -55 0
53 -55 0
-48 -53 55 0
c gate 56 -54 -55 0
-54 -56 0
-55 -56 0
54 55 56 0
c gate 57 10 13 0
10 -57 0
13 -57 0
-10 -13 57 0
c gate 58 -26 57 0
-26 -58 0
57 -58 0
26 -57 58 0
c gate 59 56 58 0
56 -59 0
58 -59 0
-56 -58 59 0
c gate 60 -56 -58 0
-56 -60 0
-58 -60 0
56 58 60 0
c gate 61 -59 -60 0
-59 -61 0
-60 -61 0
59 60 61 0
c gate 62 -47 61 0
-47 -62 0
61 -62 0
47 -61 62 0
c gate 63 5 17 0
5 -63 0
17 -63 0
-5 -17 63 0
c gate 64 4 18 0
4 -64 0
18 -64 0
-4 -18 64 0
c gate 65 63 64 0
63 -65 0
64 -65 0
-63 -64 65 0
c gate 66 3 19 0
3 -66 0
19 -66 0
-3 -19 66 0
c gate 67 -63 -64 0
-63 -67 0
-64 -67 0
63 64 67 0
c gate 68 -65 -67 0
-65 -68 0
-67 -68 0
65 67 68 0
c gate 69 66 68 0
66 -69 0
68 -69 0
-66 -68 69 0
c gate 70 -65 -69 0
-65 -70 0
-69 -70 0
65 69 70 0
c gate 71 4 19 0
4 -71 0
19 -71 0
-4 -19 71 0
c gate 72 5 18 0
5 -72 0
18 -72 0
-5 -18 72 0
c gate 73 6 17 0
6 -73 0
17 -73 0
-6 -17 73 0
c gate 74 72 73 0
72 -74 0
73 -74 0
-72 -73 74 0
c gate 75 -72 -73 0
-72 -75 0
-73 -75 0
72 73 75 0
c gate 76 -74 -75 0
-74 -76 0
-75 -76 0
74 75 76 0
c gate 77 71 76 0
71 -77 0
76 -77 0
-71 -76 77 0
c gate 78 -71 -76 0
-71 -78 0
-76 -78 0
71 76 78 0
c gate 79 -77 -78 0
-77 -79 0
-78 -79 0
77 78 79 0
c gate 80 -39 -42 0
-39 -80 0
-42 -80 0
39 42 80 0
c gate 81 79 -80 0
79 -81 0
-80 -81 0
-79 80 81 0
c gate 82 -79 80 0
-79 -82 0
80 -82 0
79 -80 82 0
c gate 83 -81 -82 0
-81 -83 0
-82 -83 0
81 82 83 0
c gate 84 70 -83 0
70 -84 0
-83 -84 0
-70 83 84 0
c gate 85 -70 83 0
-70 -85 0
83 -85 0
70 -83 85 0
c gate 86 -84 -85 0
-84 -86 0
-85 -86 0
84 85 86 0
c gate 87 47 -61 0
47 -87 0
-61 -87 0
-47 61 87 0
c gate 88 -62 -87 0
-62 -88 0
-87 -88 0
62 87 88 0
c gate 89 86 88 0
86 -89 0
88 -89 0
-86 -88 89 0
c gate 90 -62 -89 0
-62 -90 0
-89 -90 0
62 89 90 0
c gate 91 -74 -77 0
-74 -91 0
-77 -91 0
74 77 91 0
c gate 92 5 19 0
5 -92 0
19 -92 0
-5 -19 92 0
c gate 93 6 18 0
6 -93 0
18 -93 0
-6 -18 93 0
c gate 94 7 17 0
7 -94 0
17 -94 0
-7 -17 94 0
c gate 95 93 94 0
93 -95 0
94 -95 0
-93 -94 95 0
c gate 96 -93 -94 0
-93 -96 0
-94 -96 0
93 94 96 0
c gate 97 -95 -96 0
-95 -97 0
-96 -97 0
95 96 97 0
c gate 98 92 97 0
92 -98 0
97 -98 0
-92 -97 98 0
c gate 99 -92 -97 0
-92 -99 0
-97 -99 0
92 97 99 0
c gate 100 -98 -99 0
-98 -100 0
-99 -100 0
98 99 100 0
c gate 101 -52 -55 0
-52 -101 0
-55 -101 0
52 55 101 0
c gate 102 100 -101 0
100 -102 0
-101 -102 0
-100 101 102 0
c gate 103 -100 101 0
-100 -103 0
101 -103 0
100 -101 103 0
c gate 104 -102 -103 0
-102 -104 0
-103 -104 0
102 103 104 0
c gate 105 91 -104 0
91 -105 0
-104 -105 0
-91 104 105 0
c gate 106 -91 104 0
-91 -106 0
104 -106 0
91 -104 106 0
c gate 107 -105 -106 0
-105 -107 0
-106 -107 0
105 106 107 0
c gate 108 -23 -59 0
-23 -108 0
-59 -108 0
23 59 108 0
c gate 109 8 16 0
8 -109 0
16 -109 0
-8 -16 109 0
c gate 110 9 15 0
9 -110 0
15 -110 0
-9 -15 110 0
c gate 111 10 14 0
10 -111 0
14 -111 0
-10 -14 111 0
c gate 112 110 111 0
110 -112 0
111 -112 0
-110 -111 112 0
c gate 113 -110 -111 0
-110 -113 0
-111 -113 0
110 111 113 0
c gate 114 -112 -113 0
-112 -114 0
-113 -114 0
112 113 114 0
c gate 115 109 114 0
109 -115 0
114 -115 0
-109 -114 115 0
c gate 116 -109 -114 0
-109 -116 0
-114 -116 0
109 114 116 0
c gate 117 -115 -116 0
-115 -117 0
-116 -117 0
115 116 117 0
c gate 118 -108 117 0
-108 -118 0
117 -118 0
108 -117 118 0
c gate 119 108 -117 0
108 -119 0
-117 -119 0
-108 117 119 0
c gate 120 -118 -119 0
-118 -120 0
-119 -120 0
118 119 120 0
c gate 121 107 120 0
107 -121 0
120 -121 0
-107 -120 121 0
c gate 122 -107 -120 0
-107 -122 0
-120 -122 0
107 120 122 0
c gate 123 -121 -122 0
-121 -123 0
-122 -123 0
121 122 123 0
c gate 124 -90 123 0
-90 -124 0
123 -124 0
90 -123 124 0
c gate 125 -81 -85 0
-81 -125 0
-85 -125 0
81 85 125 0
c gate 126 90 -123 0
90 -126 0
-123 -126 0
-90 123 126 0
c gate 127 -124 -126 0
-124 -127 0
-126 -127 0
124 126 127 0
c gate 128 -125 127 0
-125 -128 0
127 -128 0
125 -127 128 0
c gate 129 -124 -128 0
-124 -129 0
-128 -129 0
124 128 129 0
c gate 130 -102 -106 0
-102 -130 0
-106 -130 0
102 106 130 0
c gate 131 -118 -121 0
-118 -131 0
-121 -131 0
118 121 131 0
c gate 132 10 15 0
10 -132 0
15 -132 0
-10 -15 132 0
c gate 133 9 16 0
9 -133 0
16 -133 0
-9 -16 133 0
c gate 134 132 133 0
132 -134 0
133 -134 0
-132 -133 134 0
c gate 135 -132 -133 0
-132 -135 0
-133 -135 0
132 133 135 0
c gate 136 -134 -135 0
-134 -136 0
-135 -136 0
134 135 136 0
c gate 137 -95 -98 0
-95 -137 0
-98 -137 0
95 98 137 0
c gate 138 6 19 0
6 -138 0
19 -138 0
-6 -19 138 0
c gate 139 7 18 0
7 -139 0
18 -139 0
-7 -18 139 0
c gate 140 8 17 0
8 -140 0
17 -140 0
-8 -17 140 0
c gate 141 139 140 0
139 -141 0
140 -141 0
-139 -140 141 0
c gate 142 -139 -140 0
-139 -142 0
-140 -142 0
139 140 142 0
c gate 143 -141 -142 0
-141 -143 0
-142 -143 0
141 142 143 0
c gate 144 138 143 0
138 -144 0
143 -144 0
-138 -143 144 0
c gate 145 -138 -143 0
-138 -145 0
-143 -145 0
138 143 145 0
c gate 146 -144 -145 0
-144 -146 0
-145 -146 0
144 145 146 0
c gate 147 -112 -115 0
-112 -147 0
-115 -147 0
112 115 147 0
c gate 148 146 -147 0
146 -148 0
-147 -148 0
-146 147 148 0
c gate 149 -146 147 0
-146 -149 0
147 -149 0
146 -147 149 0
c gate 150 -148 -149 0
-148 -150 0
-149 -150 0
148 149 150 0
c gate 151 137 -150 0
137 -151 0
-150 -151 0
-137 150 151 0
c gate 152 -137 150 0
-137 -152 0
150 -152 0
137 -150 152 0
c gate 153 -151 -152 0
-151 -153 0
-152 -153 0
151 152 153 0
c gate 154 136 153 0
136 -154 0
153 -154 0
-136 -153 154 0
c gate 155 -136 -153 0
-136 -155 0
-153 -155 0
136 153 155 0
c gate 156 -154 -155 0
-154 -156 0
-155 -156 0
154 155 156 0
c gate 157 -131 156 0
-131 -157 0
156 -157 0
131 -156 157 0
c gate 158 131 -156 0
131 -158 0
-156 -158 0
-131 156 158 0
c gate 159 -157 -158 0
-157 -159 0
-158 -159 0
157 158 159 0
c gate 160 -130 159 0
-130 -160 0
159 -160 0
130 -159 160 0
c gate 161 130 -159 0
130 -161 0
-159 -161 0
-130 159 161 0
c gate 162 -160 -161 0
-160 -162 0
-161 -162 0
160 161 162 0
c gate 163 -129 162 0
-129 -163 0
162 -163 0
129 -162 163 0
c gate 164 5 20 0
5 -164 0
20 -164 0
-5 -20 164 0
c gate 165 129 -162 0
129 -165 0
-162 -165 0
-129 162 165 0
c gate 166 -163 -165 0
-163 -166 0
-165 -166 0
163 165 166 0
c gate 167 164 166 0
164 -167 0
166 -167 0
-164 -166 167 0
c gate 168 -163 -167 0
-163 -168 0
-167 -168 0
163 167 168 0
c gate 169 9 11 0
9 -169 0
11 -169 0
-9 -11 169 0
c gate 170 8 12 0
8 -170 0
12 -170 0
-8 -12 170 0
c gate 171 169 170 0
169 -171 0
170 -171 0
-169 -170 171 0
c gate 172 7 13 0
7 -172 0
13 -172 0
-7 -13 172 0
c gate 173 -169 -170 0
-169 -173 0
-170 -173 0
169 170 173 0
c gate 174 -171 -173 0
-171 -174 0
-173 -174 0
171 173 174 0
c gate 175 172 174 0
172 -175 0
174 -175 0
-172 -174 175 0
c gate 176 -171 -175 0
-171 -176 0
-175 -176 0
171 175 176 0
c gate 177 -29 -31 0
-29 -177 0
-31 -177 0
29 31 177 0
c gate 178 -32 -177 0
-32 -178 0
-177 -178 0
32 177 178 0
c gate 179 -176 178 0
-176 -179 0
178 -179 0
176 -178 179 0
c gate 180 5 16 0
5 -180 0
16 -180 0
-5 -16 180 0
c gate 181 7 14 0
7 -181 0
14 -181 0
-7 -14 181 0
c gate 182 6 15 0
6 -182 0
15 -182 0
-6 -15 182 0
c gate 183 -181 -182 0
-181 -183 0
-182 -183 0
181 182 183 0
c gate 184 181 182 0
181 -184 0
182 -184 0
-181 -182 184 0
c gate 185 -183 -184 0
-183 -185 0
-184 -185 0
183 184 185 0
c gate 186 -180 -185 0
-180 -186 0
-185 -186 0
180 185 186 0
c gate 187 180 185 0
180 -187 0
185 -187 0
-180 -185 187 0
c gate 188 -186 -187 0
-186 -188 0
-187 -188 0
186 187 188 0
c gate 189 176 -178 0
176 -189 0
-178 -189 0
-176 178 189 0
c gate 190 -179 -189 0
-179 -190 0
-189 -190 0
179 189 190 0
c gate 191 188 190 0
188 -191 0
190 -191 0
-188 -190 191 0
c gate 192 -179 -191 0
-179 -192 0
-191 -192 0
179 191 192 0
c gate 193 -43 -45 0
-43 -193 0
-45 -193 0
43 45 193 0
c gate 194 -46 -193 0
-46 -194 0
-193 -194 0
46 193 194 0
c gate 195 -192 194 0
-192 -195 0
194 -195 0
192 -194 195 0
c gate 196 4 17 0
4 -196 0
17 -196 0
-4 -17 196 0
c gate 197 3 18 0
3 -197 0
18 -197 0
-3 -18 197 0
c gate 198 196 197 0
196 -198 0
197 -198 0
-196 -197 198 0
c gate 199 2 19 0
2 -199 0
19 -199 0
-2 -19 199 0
c gate 200 -196 -197 0
-196 -200 0
-197 -200 0
196 197 200 0
c gate 201 -198 -200 0
-198 -201 0
-200 -201 0
198 200 201 0
c gate 202 199 201 0
199 -202 0
201 -202 0
-199 -201 202 0
c gate 203 -198 -202 0
-198 -203 0
-202 -203 0
198 202 203 0
c gate 204 -66 -68 0
-66 -204 0
-68 -204 0
66 68 204 0
c gate 205 -69 -204 0
-69 -205 0
-204 -205 0
69 204 205 0
c gate 206 -184 -187 0
-184 -206 0
-187 -206 0
184 187 206 0
c gate 207 205 -206 0
205 -207 0
-206 -207 0
-205 206 207 0
c gate 208 -205 206 0
-205 -208 0
206 -208 0
205 -206 208 0
c gate 209 -207 -208 0
-207 -209 0
-208 -209 0
207 208 209 0
c gate 210 203 -209 0
203 -210 0
-209 -210 0
-203 209 210 0
c gate 211 -203 209 0
-203 -211 0
209 -211 0
203 -209 211 0
c gate 212 -210 -211 0
-210 -212 0
-211 -212 0
210 211 212 0
c gate 213 192 -194 0
192 -213 0
-194 -213 0
-192 194 213 0
c gate 214 -195 -213 0
-195 -214 0
-213 -214 0
195 213 214 0
c gate 215 212 214 0
212 -215 0
214 -215 0
-212 -214 215 0
c gate 216 -195 -215 0
-195 -216 0
-215 -216 0
195 215 216 0
c gate 217 -86 -88 0
-86 -217 0
-88 -217 0
86 88 217 0
c gate 218 -89 -217 0
-89 -218 0
-217 -218 0
89 217 218 0
c gate 219 -216 218 0
-216 -219 0
218 -219 0
216 -218 219 0
c gate 220 -207 -211 0
-207 -220 0
-211 -220 0
207 211 220 0
c gate 221 216 -218 0
216 -221 0
-218 -221 0
-216 218 221 0
c gate 222 -219 -221 0
-219 -222 0
-221 -222 0
219 221 222 0
c gate 223 -220 222 0
-220 -223 0
222 -223 0
220 -222 223 0
c gate 224 -219 -223 0
-219 -224 0
-223 -224 0
219 223 224 0
c gate 225 125 -127 0
125 -225 0
-127 -225 0
-125 127 225 0
c gate 226 -128 -225 0
-128 -226 0
-225 -226 0
128 225 226 0
c gate 227 -224 226 0
-224 -227 0
226 -227 0
224 -226 227 0
c gate 228 4 20 0
4 -228 0
20 -228 0
-4 -20 228 0
c gate 229 224 -226 0
224 -229 0
-226 -229 0
-224 226 229 0
c gate 230 -227 -229 0
-227 -230 0
-229 -230 0
227 229 230 0
c gate 231 228 230 0
228 -231 0
230 -231 0
-228 -230 231 0
c gate 232 -227 -231 0
-227 -232 0
-231 -232 0
227 231 232 0
c gate 233 -164 -166 0
-164 -233 0
-166 -233 0
164 166 233 0
c gate 234 -167 -233 0
-167 -234 0
-233 -234 0
167 233 234 0
c gate 235 232 -234 0
232 -235 0
-234 -235 0
-232 234 235 0
c gate 236 3 20 0
3 -236 0
20 -236 0
-3 -20 236 0
c gate 237 8 11 0
8 -237 0
11 -237 0
-8 -11 237 0
c gate 238 7 12 0
7 -238 0
12 -238 0
-7 -12 238 0
c gate 239 237 238 0
237 -239 0
238 -239 0
-237 -238 239 0
c gate 240 6 13 0
6 -240 0
13 -240 0
-6 -13 240 0
c gate 241 -237 -238 0
-237 -241 0
-238 -241 0
237 238 241 0
c gate 242 -239 -241 0
-239 -242 0
-241 -242 0
239 241 242 0
c gate 243 240 242 0
240 -243 0
242 -243 0
-240 -242 243 0
c gate 244 -239 -243 0
-239 -244 0
-243 -244 0
239 243 244 0
c gate 245 -172 -174 0
-172 -245 0
-174 -245 0
172 174 245 0
c gate 246 -175 -245 0
-175 -246 0
-245 -246 0
175 245 246 0
c gate 247 -244 246 0
-244 -247 0
246 -247 0
244 -246 247 0
c gate 248 4 16 0
4 -248 0
16 -248 0
-4 -16 248 0
c gate 249 6 14 0
6 -249 0
14 -249 0
-6 -14 249 0
c gate 250 5 15 0
5 -250 0
15 -250 0
-5 -15 250 0
c gate 251 -249 -250 0
-249 -251 0
-250 -251 0
249 250 251 0
c gate 252 249 250 0
249 -252 0
250 -252 0
-249 -250 252 0
c gate 253 -251 -252 0
-251 -253 0
-252 -253 0
251 252 253 0
c gate 254 -248 -253 0
-248 -254 0
-253 -254 0
248 253 254 0
c gate 255 248 253 0
248 -255 0
253 -255 0
-248 -253 255 0
c gate 256 -254 -255 0
-254 -256 0
-255 -256 0
254 255 256 0
c gate 257 244 -246 0
244 -257 0
-246 -257 0
-244 246 257 0
c gate 258 -247 -257 0
-247 -258 0
-257 -258 0
247 257 258 0
c gate 259 256 258 0
256 -259 0
258 -259 0
-256 -258 259 0
c gate 260 -247 -259 0
-247 -260 0
-259 -260 0
247 259 260 0
c gate 261 -188 -190 0
-188 -261 0
-190 -261 0
188 190 261 0
c gate 262 -191 -261 0
-191 -262 0
-261 -262 0
191 261 262 0
c gate 263 -260 262 0
-260 -263 0
262 -263 0
260 -262 263 0
c gate 264 3 17 0
3 -264 0
17 -264 0
-3 -17 264 0
c gate 265 2 18 0
2 -265 0
18 -265 0
-2 -18 265 0
c gate 266 264 265 0
264 -266 0
265 -266 0
-264 -265 266 0
c gate 267 1 19 0
1 -267 0
19 -267 0
-1 -19 267 0
c gate 268 -264 -265 0
-264 -268 0
-265 -268 0
264 265 268 0
c gate 269 -266 -268 0
-266 -269 0
-268 -269 0
266 268 269 0
c gate 270 267 269 0
267 -270 0
269 -270 0
-267 -269 270 0
c gate 271 -266 -270 0
-266 -271 0
-270 -271 0
266 270 271 0
c gate 272 -199 -201 0
-199 -272 0
-201 -272 0
199 201 272 0
c gate 273 -202 -272 0
-202 -273 0
-272 -273 0
202 272 273 0
c gate 274 -252 -255 0
-252 -274 0
-255 -274 0
252 255 274 0
c gate 275 273 -274 0
273 -275 0
-274 -275 0
-273 274 275 0
c gate 276 -273 274 0
-273 -276 0
274 -276 0
273 -274 276 0
c gate 277 -275 -276 0
-275 -277 0
-276 -277 0
275 276 277 0
c gate 278 271 -277 0
271 -278 0
-277 -278 0
-271 277 278 0
c gate 279 -271 277 0
-271 -279 0
277 -279 0
271 -277 279 0
c gate 280 -278 -279 0
-278 -280 0
-279 -280 0
278 279 280 0
c gate 281 260 -262 0
260 -281 0
-262 -281 0
-260 262 281 0
c gate 282 -263 -281 0
-263 -282 0
-281 -282 0
263 281 282 0
c gate 283 280 282 0
280 -283 0
282 -283 0
-280 -282 283 0
c gate 284 -263 -283 0
-263 -284 0
-283 -284 0
263 283 284 0
c gate 285 -212 -214 0
-212 -285 0
-214 -285 0
212 214 285 0
c gate 286 -215 -285 0
-215 -286 0
-285 -286 0
215 285 286 0
c gate 287 -284 286 0
-284 -287 0
286 -287 0
284 -286 287 0
c gate 288 -275 -279 0
-275 -288 0
-279 -288 0
275 279 288 0
c gate 289 284 -286 0
284 -289 0
-286 -289 0
-284 286 289 0
c gate 290 -287 -289 0
-287 -290 0
-289 -290 0
287 289 290 0
c gate 291 -288 290 0
-288 -291 0
290 -291 0
288 -290 291 0
c gate 292 -287 -291 0
-287 -292 0
-291 -292 0
287 291 292 0
c gate 293 220 -222 0
220 -293 0
-222 -293 0
-220 222 293 0
c gate 294 -223 -293 0
-223 -294 0
-293 -294 0
223 293 294 0
c gate 295 -292 294 0
-292 -295 0
294 -295 0
292 -294 295 0
c gate 296 292 -294 0
292 -296 0
-294 -296 0
-292 294 296 0
c gate 297 -295 -296 0
-295 -297 0
-296 -297 0
295 296 297 0
c gate 298 236 297 0
236 -298 0
297 -298 0
-236 -297 298 0
c gate 299 -236 -297 0
-236 -299 0
-297 -299 0
236 297 299 0
c gate 300 -298 -299 0
-298 -300 0
-299 -300 0
298 299 300 0
c gate 301 7 11 0
7 -301 0
11 -301 0
-7 -11 301 0
c gate 302 6 12 0
6 -302 0
12 -302 0
-6 -12 302 0
c gate 303 301 302 0
301 -303 0
302 -303 0
-301 -302 303 0
c gate 304 -301 -302 0
-301 -304 0
-302 -304 0
301 302 304 0
c gate 305 -303 -304 0
-303 -305 0
-304 -305 0
303 304 305 0
c gate 306 5 13 0
5 -306 0
13 -306 0
-5 -13 306 0
c gate 307 305 306 0
305 -307 0
306 -307 0
-305 -306 307 0
c gate 308 -303 -307 0
-303 -308 0
-307 -308 0
303 307 308 0
c gate 309 -240 -242 0
-240 -309 0
-242 -309 0
240 242 309 0
c gate 310 -243 -309 0
-243 -310 0
-309 -310 0
243 309 310 0
c gate 311 -308 310 0
-308 -311 0
310 -311 0
308 -310 311 0
c gate 312 3 16 0
3 -312 0
16 -312 0
-3 -16 312 0
c gate 313 5 14 0
5 -313 0
14 -313 0
-5 -14 313 0
c gate 314 4 15 0
4 -314 0
15 -314 0
-4 -15 314 0
c gate 315 -313 -314 0
-313 -315 0
-314 -315 0
313 314 315 0
c gate 316 313 314 0
313 -316 0
314 -316 0
-313 -314 316 0
c gate 317 -315 -316 0
-315 -317 0
-316 -317 0
315 316 317 0
c gate 318 -312 -317 0
-312 -318 0
-317 -318 0
312 317 318 0
c gate 319 312 317 0
312 -319 0
317 -319 0
-312 -317 319 0
c gate 320 -318 -319 0
-318 -320 0
-319 -320 0
318 319 320 0
c gate 321 308 -310 0
308 -321 0
-310 -321 0
-308 310 321 0
c gate 322 -311 -321 0
-311 -322 0
-321 -322 0
311 321 322 0
c gate 323 320 322 0
320 -323 0
322 -323 0
-320 -322 323 0
c gate 324 -311 -323 0
-311 -324 0
-323 -324 0
311 323 324 0
c gate 325 -256 -258 0
-256 -325 0
-258 -325 0
256 258 325 0
c gate 326 -259 -325 0
-259 -326 0
-325 -326 0
259 325 326 0
c gate 327 -324 326 0
-324 -327 0
326 -327 0
324 -326 327 0
c gate 328 2 17 0
2 -328 0
17 -328 0
-2 -17 328 0
c gate 329 1 18 0
1 -329 0
18 -329 0
-1 -18 329 0
c gate 330 328 329 0
328 -330 0
329 -330 0
-328 -329 330 0
c gate 331 -267 -269 0
-267 -331 0
-269 -331 0
267 269 331 0
c gate 332 -270 -331 0
-270 -332 0
-331 -332 0
270 331 332 0
c gate 333 -316 -319 0
-316 -333 0
-319 -333 0
316 319 333 0
c gate 334 332 -333 0
332 -334 0
-333 -334 0
-332 333 334 0
c gate 335 -332 333 0
-332 -335 0
333 -335 0
332 -333 335 0
c gate 336 -334 -335 0
-334 -336 0
-335 -336 0
334 335 336 0
c gate 337 -330 -336 0
-330 -337 0
-336 -337 0
330 336 337 0
c gate 338 330 336 0
330 -338 0
336 -338 0
-330 -336 338 0
c gate 339 -337 -338 0
-337 -339 0
-338 -339 0
337 338 339 0
c gate 340 324 -326 0
324 -340 0
-326 -340 0
-324 326 340 0
c gate 341 -327 -340 0
-327 -341 0
-340 -341 0
327 340 341 0
c gate 342 339 341 0
339 -342 0
341 -342 0
-339 -341 342 0
c gate 343 -327 -342 0
-327 -343 0
-342 -343 0
327 342 343 0
c gate 344 -280 -282 0
-280 -344 0
-282 -344 0
280 282 344 0
c gate 345 -283 -344 0
-283 -345 0
-344 -345 0
283 344 345 0
c gate 346 -343 345 0
-343 -346 0
345 -346 0
343 -345 346 0
c gate 347 -334 -338 0
-334 -347 0
-338 -347 0
334 338 347 0
c gate 348 343 -345 0
343 -348 0
-345 -348 0
-343 345 348 0
c gate 349 -346 -348 0
-346 -349 0
-348 -349 0
346 348 349 0
c gate 350 -347 349 0
-347 -350 0
349 -350 0
347 -349 350 0
c gate 351 -346 -350 0
-346 -351 0
-350 -351 0
346 350 351 0
c gate 352 288 -290 0
288 -352 0
-290 -352 0
-288 290 352 0
c gate 353 -291 -352 0
-291 -353 0
-352 -353 0
291 352 353 0
c gate 354 -351 353 0
-351 -354 0
353 -354 0
351 -353 354 0
c gate 355 2 20 0
2 -355 0
20 -355 0
-2 -20 355 0
c gate 356 351 -353 0
351 -356 0
-353 -356 0
-351 353 356 0
c gate 357 -354 -356 0
-354 -357 0
-356 -357 0
354 356 357 0
c gate 358 355 357 0
355 -358 0
357 -358 0
-355 -357 358 0
c gate 359 -354 -358 0
-354 -359 0
-358 -359 0
354 358 359 0
c gate 360 300 -359 0
300 -360 0
-359 -360 0
-300 359 360 0
c gate 361 -355 -357 0
-355 -361 0
-357 -361 0
355 357 361 0
c gate 362 -358 -361 0
-358 -362 0
-361 -362 0
358 361 362 0
c gate 363 6 11 0
6 -363 0
11 -363 0
-6 -11 363 0
c gate 364 5 12 0
5 -364 0
12 -364 0
-5 -12 364 0
c gate 365 363 364 0
363 -365 0
364 -365 0
-363 -364 365 0
c gate 366 4 13 0
4 -366 0
13 -366 0
-4 -13 366 0
c gate 367 -363 -364 0
-363 -367 0
-364 -367 0
363 364 367 0
c gate 368 -365 -367 0
-365 -368 0
-367 -368 0
365 367 368 0
c gate 369 366 368 0
366 -369 0
368 -369 0
-366 -368 369 0
c gate 370 -365 -369 0
-365 -370 0
-369 -370 0
365 369 370 0
c gate 371 -305 -306 0
-305 -371 0
-306 -371 0
305 306 371 0
c gate 372 -307 -371 0
-307 -372 0
-371 -372 0
307 371 372 0
c gate 373 -370 372 0
-370 -373 0
372 -373 0
370 -372 373 0
c gate 374 370 -372 0
370 -374 0
-372 -374 0
-370 372 374 0
c gate 375 -373 -374 0
-373 -375 0
-374 -375 0
373 374 375 0
c gate 376 2 16 0
2 -376 0
16 -376 0
-2 -16 376 0
c gate 377 4 14 0
4 -377 0
14 -377 0
-4 -14 377 0
c gate 378 3 15 0
3 -378 0
15 -378 0
-3 -15 378 0
c gate 379 -377 -378 0
-377 -379 0
-378 -379 0
377 378 379 0
c gate 380 377 378 0
377 -380 0
378 -380 0
-377 -378 380 0
c gate 381 -379 -380 0
-379 -381 0
-380 -381 0
379 380 381 0
c gate 382 376 381 0
376 -382 0
381 -382 0
-376 -381 382 0
c gate 383 -376 -381 0
-376 -383 0
-381 -383 0
376 381 383 0
c gate 384 -382 -383 0
-382 -384 0
-383 -384 0
382 383 384 0
c gate 385 375 384 0
375 -385 0
384 -385 0
-375 -384 385 0
c gate 386 -373 -385 0
-373 -386 0
-385 -386 0
373 385 386 0
c gate 387 -320 -322 0
-320 -387 0
-322 -387 0
320 322 387 0
c gate 388 -323 -387 0
-323 -388 0
-387 -388 0
323 387 388 0
c gate 389 -386 388 0
-386 -389 0
388 -389 0
386 -388 389 0
c gate 390 -328 -329 0
-328 -390 0
-329 -390 0
328 329 390 0
c gate 391 -330 -390 0
-330 -391 0
-390 -391 0
330 390 391 0
c gate 392 -380 -382 0
-380 -392 0
-382 -392 0
380 382 392 0
c gate 393 391 -392 0
391 -393 0
-392 -393 0
-391 392 393 0
c gate 394 -391 392 0
-391 -394 0
392 -394 0
391 -392 394 0
c gate 395 -393 -394 0
-393 -395 0
-394 -395 0
393 394 395 0
c gate 396 386 -388 0
386 -396 0
-388 -396 0
-386 388 396 0
c gate 397 -389 -396 0
-389 -397 0
-396 -397 0
389 396 397 0
c gate 398 395 397 0
395 -398 0
397 -398 0
-395 -397 398 0
c gate 399 -389 -398 0
-389 -399 0
-398 -399 0
389 398 399 0
c gate 400 -339 -341 0
-339 -400 0
-341 -400 0
339 341 400 0
c gate 401 -342 -400 0
-342 -401 0
-400 -401 0
342 400 401 0
c gate 402 -399 401 0
-399 -402 0
401 -402 0
399 -401 402 0
c gate 403 399 -401 0
399 -403 0
-401 -403 0
-399 401 403 0
c gate 404 -402 -403 0
-402 -404 0
-403 -404 0
402 403 404 0
c gate 405 393 404 0
393 -405 0
404 -405 0
-393 -404 405 0
c gate 406 -402 -405 0
-402 -406 0
-405 -406 0
402 405 406 0
c gate 407 347 -349 0
347 -407 0
-349 -407 0
-347 349 407 0
c gate 408 -350 -407 0
-350 -408 0
-407 -408 0
350 407 408 0
c gate 409 -406 408 0
-406 -409 0
408 -409 0
406 -408 409 0
c gate 410 1 20 0
1 -410 0
20 -410 0
-1 -20 410 0
c gate 411 406 -408 0
406 -411 0
-408 -411 0
-406 408 411 0
c gate 412 -409 -411 0
-409 -412 0
-411 -412 0
409 411 412 0
c gate 413 410 412 0
410 -413 0
412 -413 0
-410 -412 413 0
c gate 414 -410 -412 0
-410 -414 0
-412 -414 0
410 412 414 0
c gate 415 -413 -414 0
-413 -415 0
-414 -415 0
413 414 415 0
c gate 416 1 17 0
1 -416 0
17 -416 0
-1 -17 416 0
c gate 417 3 14 0
3 -417 0
14 -417 0
-3 -14 417 0
c gate 418 2 15 0
2 -418 0
15 -418 0
-2 -15 418 0
c gate 419 417 418 0
417 -419 0
418 -419 0
-417 -418 419 0
c gate 420 1 16 0
1 -420 0
16 -420 0
-1 -16 420 0
c gate 421 -417 -418 0
-417 -421 0
-418 -421 0
417 418 421 0
c gate 422 -419 -421 0
-419 -422 0
-421 -422 0
419 421 422 0
c gate 423 420 422 0
420 -423 0
422 -423 0
-420 -422 423 0
c gate 424 -419 -423 0
-419 -424 0
-423 -424 0
419 423 424 0
c gate 425 416 -424 0
416 -425 0
-424 -425 0
-416 424 425 0
c gate 426 5 11 0
5 -426 0
11 -426 0
-5 -11 426 0
c gate 427 4 12 0
4 -427 0
12 -427 0
-4 -12 427 0
c gate 428 426 427 0
426 -428 0
427 -428 0
-426 -427 428 0
c gate 429 -426 -427 0
-426 -429 0
-427 -429 0
426 427 429 0
c gate 430 -428 -429 0
-428 -430 0
-429 -430 0
428 429 430 0
c gate 431 3 13 0
3 -431 0
13 -431 0
-3 -13 431 0
c gate 432 430 431 0
430 -432 0
431 -432 0
-430 -431 432 0
c gate 433 -428 -432 0
-428 -433 0
-432 -433 0
428 432 433 0
c gate 434 -366 -368 0
-366 -434 0
-368 -434 0
366 368 434 0
c gate 435 -369 -434 0
-369 -435 0
-434 -435 0
369 434 435 0
c gate 436 -433 435 0
-433 -436 0
435 -436 0
433 -435 436 0
c gate 437 -420 -422 0
-420 -437 0
-422 -437 0
420 422 437 0
c gate 438 -423 -437 0
-423 -438 0
-437 -438 0
423 437 438 0
c gate 439 433 -435 0
433 -439 0
-435 -439 0
-433 435 439 0
c gate 440 -436 -439 0
-436 -440 0
-439 -440 0
436 439 440 0
c gate 441 438 440 0
438 -441 0
440 -441 0
-438 -440 441 0
c gate 442 -436 -441 0
-436 -442 0
-441 -442 0
436 441 442 0
c gate 443 -375 -384 0
-375 -443 0
-384 -443 0
375 384 443 0
c gate 444 -385 -443 0
-385 -444 0
-443 -444 0
385 443 444 0
c gate 445 -442 444 0
-442 -445 0
444 -445 0
442 -444 445 0
c gate 446 442 -444 0
442 -446 0
-444 -446 0
-442 444 446 0
c gate 447 -445 -446 0
-445 -447 0
-446 -447 0
445 446 447 0
c gate 448 -416 424 0
-416 -448 0
424 -448 0
416 -424 448 0
c gate 449 -425 -448 0
-425 -449 0
-448 -449 0
425 448 449 0
c gate 450 447 449 0
447 -450 0
449 -450 0
-447 -449 450 0
c gate 451 -445 -450 0
-445 -451 0
-450 -451 0
445 450 451 0
c gate 452 -395 -397 0
-395 -452 0
-397 -452 0
395 397 452 0
c gate 453 -398 -452 0
-398 -453 0
-452 -453 0
398 452 453 0
c gate 454 -451 453 0
-451 -454 0
453 -454 0
451 -453 454 0
c gate 455 451 -453 0
451 -455 0
-453 -455 0
-451 453 455 0
c gate 456 -454 -455 0
-454 -456 0
-455 -456 0
454 455 456 0
c gate 457 -425 -456 0
-425 -457 0
-456 -457 0
425 456 457 0
c gate 458 -393 -404 0
-393 -458 0
-404 -458 0
393 404 458 0
c gate 459 -405 -458 0
-405 -459 0
-458 -459 0
405 458 459 0
c gate 460 454 -459 0
454 -460 0
-459 -460 0
-454 459 460 0
c gate 461 425 -455 0
425 -461 0
-455 -461 0
-425 455 461 0
c gate 462 -454 -461 0
-454 -462 0
-461 -462 0
454 461 462 0
c gate 463 459 462 0
459 -463 0
462 -463 0
-459 -462 463 0
c gate 464 -460 -463 0
-460 -464 0
-463 -464 0
460 463 464 0
c gate 465 -457 -464 0
-457 -465 0
-464 -465 0
457 464 465 0
c gate 466 4 11 0
4 -466 0
11 -466 0
-4 -11 466 0
c gate 467 3 12 0
3 -467 0
12 -467 0
-3 -12 467 0
c gate 468 466 467 0
466 -468 0
467 -468 0
-466 -467 468 0
c gate 469 -466 -467 0
-466 -469 0
-467 -469 0
466 467 469 0
c gate 470 -468 -469 0
-468 -470 0
-469 -470 0
468 469 470 0
c gate 471 2 13 0
2 -471 0
13 -471 0
-2 -13 471 0
c gate 472 470 471 0
470 -472 0
471 -472 0
-470 -471 472 0
c gate 473 -468 -472 0
-468 -473 0
-472 -473 0
468 472 473 0
c gate 474 -430 -431 0
-430 -474 0
-431 -474 0
430 431 474 0
c gate 475 -432 -474 0
-432 -475 0
-474 -475 0
432 474 475 0
c gate 476 -473 475 0
-473 -476 0
475 -476 0
473 -475 476 0
c gate 477 2 14 0
2 -477 0
14 -477 0
-2 -14 477 0
c gate 478 1 15 0
1 -478 0
15 -478 0
-1 -15 478 0
c gate 479 -477 -478 0
-477 -479 0
-478 -479 0
477 478 479 0
c gate 480 477 478 0
477 -480 0
478 -480 0
-477 -478 480 0
c gate 481 -479 -480 0
-479 -481 0
-480 -481 0
479 480 481 0
c gate 482 473 -475 0
473 -482 0
-475 -482 0
-473 475 482 0
c gate 483 -476 -482 0
-476 -483 0
-482 -483 0
476 482 483 0
c gate 484 481 483 0
481 -484 0
483 -484 0
-481 -483 484 0
c gate 485 -476 -484 0
-476 -485 0
-484 -485 0
476 484 485 0
c gate 486 -438 -440 0
-438 -486 0
-440 -486 0
438 440 486 0
c gate 487 -441 -486 0
-441 -487 0
-486 -487 0
441 486 487 0
c gate 488 -485 487 0
-485 -488 0
487 -488 0
485 -487 488 0
c gate 489 485 -487 0
485 -489 0
-487 -489 0
-485 487 489 0
c gate 490 -488 -489 0
-488 -490 0
-489 -490 0
488 489 490 0
c gate 491 480 490 0
480 -491 0
490 -491 0
-480 -490 491 0
c gate 492 -488 -491 0
-488 -492 0
-491 -492 0
488 491 492 0
c gate 493 -447 -449 0
-447 -493 0
-449 -493 0
447 449 493 0
c gate 494 -450 -493 0
-450 -494 0
-493 -494 0
450 493 494 0
c gate 495 -492 494 0
-492 -495 0
494 -495 0
492 -494 495 0
c gate 496 465 495 0
465 -496 0
495 -496 0
-465 -495 496 0
c gate 497 459 -463 0
459 -497 0
-463 -497 0
-459 463 497 0
c gate 498 -496 -497 0
-496 -498 0
-497 -498 0
496 497 498 0
c gate 499 415 -498 0
415 -499 0
-498 -499 0
-415 498 499 0
c gate 500 409 499 0
409 -500 0
499 -500 0
-409 -499 500 0
c gate 501 -362 -500 0
-362 -501 0
-500 -501 0
362 500 501 0
c gate 502 -409 -413 0
-409 -502 0
-413 -502 0
409 413 502 0
c gate 503 -499 502 0
-499 -503 0
502 -503 0
499 -502 503 0
c gate 504 -501 -503 0
-501 -504 0
-503 -504 0
501 503 504 0
c gate 505 -360 -504 0
-360 -505 0
-504 -505 0
360 504 505 0
c gate 506 -300 359 0
-300 -506 0
359 -506 0
300 -359 506 0
c gate 507 -295 -298 0
-295 -507 0
-298 -507 0
295 298 507 0
c gate 508 -228 -230 0
-228 -508 0
-230 -508 0
228 230 508 0
c gate 509 -231 -508 0
-231 -509 0
-508 -509 0
231 508 509 0
c gate 510 507 -509 0
507 -510 0
-509 -510 0
-507 509 510 0
c gate 511 -506 -510 0
-506 -511 0
-510 -511 0
506 510 511 0
c gate 512 -505 511 0
-505 -512 0
511 -512 0
505 -511 512 0
c gate 513 -507 509 0
-507 -513 0
509 -513 0
507 -509 513 0
c gate 514 -232 234 0
-232 -514 0
234 -514 0
232 -234 514 0
c gate 515 -513 -514 0
-513 -515 0
-514 -515 0
513 514 515 0
c gate 516 -512 515 0
-512 -516 0
515 -516 0
512 -515 516 0
c gate 517 -235 -516 0
-235 -517 0
-516 -517 0
235 516 517 0
c gate 518 168 -517 0
168 -518 0
-517 -518 0
-168 517 518 0
c gate 519 6 20 0
6 -519 0
20 -519 0
-6 -20 519 0
c gate 520 -157 -160 0
-157 -520 0
-160 -520 0
157 160 520 0
c gate 521 -148 -152 0
-148 -521 0
-152 -521 0
148 152 521 0
c gate 522 10 16 0
10 -522 0
16 -522 0
-10 -16 522 0
c gate 523 -141 -144 0
-141 -523 0
-144 -523 0
141 144 523 0
c gate 524 7 19 0
7 -524 0
19 -524 0
-7 -19 524 0
c gate 525 8 18 0
8 -525 0
18 -525 0
-8 -18 525 0
c gate 526 9 17 0
9 -526 0
17 -526 0
-9 -17 526 0
c gate 527 -525 -526 0
-525 -527 0
-526 -527 0
525 526 527 0
c gate 528 525 526 0
525 -528 0
526 -528 0
-525 -526 528 0
c gate 529 -527 -528 0
-527 -529 0
-528 -529 0
527 528 529 0
c gate 530 524 529 0
524 -530 0
529 -530 0
-524 -529 530 0
c gate 531 -524 -529 0
-524 -531 0
-529 -531 0
524 529 531 0
c gate 532 -530 -531 0
-530 -532 0
-531 -532 0
530 531 532 0
c gate 533 134 532 0
134 -533 0
532 -533 0
-134 -532 533 0
c gate 534 -134 -532 0
-134 -534 0
-532 -534 0
134 532 534 0
c gate 535 -533 -534 0
-533 -535 0
-534 -535 0
533 534 535 0
c gate 536 523 -535 0
523 -536 0
-535 -536 0
-523 535 536 0
c gate 537 -523 535 0
-523 -537 0
535 -537 0
523 -535 537 0
c gate 538 -536 -537 0
-536 -538 0
-537 -538 0
536 537 538 0
c gate 539 522 538 0
522 -539 0
538 -539 0
-522 -538 539 0
c gate 540 -522 -538 0
-522 -540 0
-538 -540 0
522 538 540 0
c gate 541 -539 -540 0
-539 -541 0
-540 -541 0
539 540 541 0
c gate 542 154 541 0
154 -542 0
541 -542 0
-154 -541 542 0
c gate 543 -154 -541 0
-154 -543 0
-541 -543 0
154 541 543 0
c gate 544 -542 -543 0
-542 -544 0
-543 -544 0
542 543 544 0
c gate 545 -521 544 0
-521 -545 0
544 -545 0
521 -544 545 0
c gate 546 521 -544 0
521 -546 0
-544 -546 0
-521 544 546 0
c gate 547 -545 -546 0
-545 -547 0
-546 -547 0
545 546 547 0
c gate 548 -520 547 0
-520 -548 0
547 -548 0
520 -547 548 0
c gate 549 520 -547 0
520 -549 0
-547 -549 0
-520 547 549 0
c gate 550 -548 -549 0
-548 -550 0
-549 -550 0
548 549 550 0
c gate 551 519 550 0
519 -551 0
550 -551 0
-519 -550 551 0
c gate 552 -519 -550 0
-519 -552 0
-550 -552 0
519 550 552 0
c gate 553 -551 -552 0
-551 -553 0
-552 -553 0
551 552 553 0
c gate 554 -518 553 0
-518 -554 0
553 -554 0
518 -553 554 0
c gate 555 -548 -551 0
-548 -555 0
-551 -555 0
548 551 555 0
c gate 556 7 20 0
7 -556 0
20 -556 0
-7 -20 556 0
c gate 557 -542 -545 0
-542 -557 0
-545 -557 0
542 545 557 0
c gate 558 -533 -537 0
-533 -558 0
-537 -558 0
533 537 558 0
c gate 559 -528 -530 0
-528 -559 0
-530 -559 0
528 530 559 0
c gate 560 8 19 0
8 -560 0
19 -560 0
-8 -19 560 0
c gate 561 9 18 0
9 -561 0
18 -561 0
-9 -18 561 0
c gate 562 10 17 0
10 -562 0
17 -562 0
-10 -17 562 0
c gate 563 561 562 0
561 -563 0
562 -563 0
-561 -562 563 0
c gate 564 -561 -562 0
-561 -564 0
-562 -564 0
561 562 564 0
c gate 565 -563 -564 0
-563 -565 0
-564 -565 0
563 564 565 0
c gate 566 560 565 0
560 -566 0
565 -566 0
-560 -565 566 0
c gate 567 -560 -565 0
-560 -567 0
-565 -567 0
560 565 567 0
c gate 568 -566 -567 0
-566 -568 0
-567 -568 0
566 567 568 0
c gate 569 -559 568 0
-559 -569 0
568 -569 0
559 -568 569 0
c gate 570 559 -568 0
559 -570 0
-568 -570 0
-559 568 570 0
c gate 571 -569 -570 0
-569 -571 0
-570 -571 0
569 570 571 0
c gate 572 539 571 0
539 -572 0
571 -572 0
-539 -571 572 0
c gate 573 -539 -571 0
-539 -573 0
-571 -573 0
539 571 573 0
c gate 574 -572 -573 0
-572 -574 0
-573 -574 0
572 573 574 0
c gate 575 -558 574 0
-558 -575 0
574 -575 0
558 -574 575 0
c gate 576 558 -574 0
558 -576 0
-574 -576 0
-558 574 576 0
c gate 577 -575 -576 0
-575 -577 0
-576 -577 0
575 576 577 0
c gate 578 -557 577 0
-557 -578 0
577 -578 0
557 -577 578 0
c gate 579 557 -577 0
557 -579 0
-577 -579 0
-557 577 579 0
c gate 580 -578 -579 0
-578 -580 0
-579 -580 0
578 579 580 0
c gate 581 556 580 0
556 -581 0
580 -581 0
-556 -580 581 0
c gate 582 -556 -580 0
-556 -582 0
-580 -582 0
556 580 582 0
c gate 583 -581 -582 0
-581 -583 0
-582 -583 0
581 582 583 0
c gate 584 -555 583 0
-555 -584 0
583 -584 0
555 -583 584 0
c gate 585 -168 517 0
-168 -585 0
517 -585 0
168 -517 585 0
c gate 586 -584 -585 0
-584 -586 0
-585 -586 0
584 585 586 0
c gate 587 -554 586 0
-554 -587 0
586 -587 0
554 -586 587 0
c gate 588 -578 -581 0
-578 -588 0
-581 -588 0
578 581 588 0
c gate 589 8 20 0
8 -589 0
20 -589 0
-8 -20 589 0
c gate 590 -572 -575 0
-572 -590 0
-575 -590 0
572 575 590 0
c gate 591 -563 -566 0
-563 -591 0
-566 -591 0
563 566 591 0
c gate 592 10 18 0
10 -592 0
18 -592 0
-10 -18 592 0
c gate 593 9 19 0
9 -593 0
19 -593 0
-9 -19 593 0
c gate 594 592 -593 0
592 -594 0
-593 -594 0
-592 593 594 0
c gate 595 -592 593 0
-592 -595 0
593 -595 0
592 -593 595 0
c gate 596 -594 -595 0
-594 -596 0
-595 -596 0
594 595 596 0
c gate 597 -591 -596 0
-591 -597 0
-596 -597 0
591 596 597 0
c gate 598 591 596 0
591 -598 0
596 -598 0
-591 -596 598 0
c gate 599 -597 -598 0
-597 -599 0
-598 -599 0
597 598 599 0
c gate 600 569 599 0
569 -600 0
599 -600 0
-569 -599 600 0
c gate 601 -569 -599 0
-569 -601 0
-599 -601 0
569 599 601 0
c gate 602 -600 -601 0
-600 -602 0
-601 -602 0
600 601 602 0
c gate 603 -590 602 0
-590 -603 0
602 -603 0
590 -602 603 0
c gate 604 590 -602 0
590 -604 0
-602 -604 0
-590 602 604 0
c gate 605 -603 -604 0
-603 -605 0
-604 -605 0
603 604 605 0
c gate 606 589 605 0
589 -606 0
605 -606 0
-589 -605 606 0
c gate 607 -589 -605 0
-589 -607 0
-605 -607 0
589 605 607 0
c gate 608 -606 -607 0
-606 -608 0
-607 -608 0
606 607 608 0
c gate 609 588 -608 0
588 -609 0
-608 -609 0
-588 608 609 0
c gate 610 555 -583 0
555 -610 0
-583 -610 0
-555 583 610 0
c gate 611 -609 -610 0
-609 -611 0
-610 -611 0
609 610 611 0
c gate 612 -587 611 0
-587 -612 0
611 -612 0
587 -611 612 0
c gate 613 -588 608 0
-588 -613 0
608 -613 0
588 -608 613 0
c gate 614 -603 -606 0
-603 -614 0
-606 -614 0
603 606 614 0
c gate 615 9 20 0
9 -615 0
20 -615 0
-9 -20 615 0
c gate 616 10 19 0
10 -616 0
19 -616 0
-10 -19 616 0
c gate 617 -561 -597 0
-561 -617 0
-597 -617 0
561 597 617 0
c gate 618 616 -617 0
616 -618 0
-617 -618 0
-616 617 618 0
c gate 619 -597 -616 0
-597 -619 0
-616 -619 0
597 616 619 0
c gate 620 -618 -619 0
-618 -620 0
-619 -620 0
618 619 620 0
c gate 621 600 -620 0
600 -621 0
-620 -621 0
-600 620 621 0
c gate 622 -600 620 0
-600 -622 0
620 -622 0
600 -620 622 0
c gate 623 -621 -622 0
-621 -623 0
-622 -623 0
621 622 623 0
c gate 624 615 -623 0
615 -624 0
-623 -624 0
-615 623 624 0
c gate 625 -615 623 0
-615 -625 0
623 -625 0
615 -623 625 0
c gate 626 -624 -625 0
-624 -626 0
-625 -626 0
624 625 626 0
c gate 627 -614 626 0
-614 -627 0
626 -627 0
614 -626 627 0
c gate 628 -613 -627 0
-613 -628 0
-627 -628 0
613 627 628 0
c gate 629 -612 628 0
-612 -629 0
628 -629 0
612 -628 629 0
c gate 630 618 624 0
618 -630 0
624 -630 0
-618 -624 630 0
c gate 631 -614 630 0
-614 -631 0
630 -631 0
614 -630 631 0
c gate 632 -629 631 0
-629 -632 0
631 -632 0
629 -631 632 0
c gate 633 492 -494 0
492 -633 0
-494 -633 0
-492 494 633 0
c gate 634 -470 -471 0
-470 -634 0
-471 -634 0
470 471 634 0
c gate 635 -472 -634 0
-472 -635 0
-634 -635 0
472 634 635 0
c gate 636 3 11 0
3 -636 0
11 -636 0
-3 -11 636 0
c gate 637 2 12 0
2 -637 0
12 -637 0
-2 -12 637 0
c gate 638 636 637 0
636 -638 0
637 -638 0
-636 -637 638 0
c gate 639 -636 -637 0
-636 -639 0
-637 -639 0
636 637 639 0
c gate 640 1 13 0
1 -640 0
13 -640 0
-1 -13 640 0
c gate 641 -639 640 0
-639 -641 0
640 -641 0
639 -640 641 0
c gate 642 -638 -641 0
-638 -642 0
-641 -642 0
638 641 642 0
c gate 643 635 -642 0
635 -643 0
-642 -643 0
-635 642 643 0
c gate 644 1 14 0
1 -644 0
14 -644 0
-1 -14 644 0
c gate 645 -635 642 0
-635 -645 0
642 -645 0
635 -642 645 0
c gate 646 -643 -645 0
-643 -646 0
-645 -646 0
643 645 646 0
c gate 647 644 646 0
644 -647 0
646 -647 0
-644 -646 647 0
c gate 648 -643 -647 0
-643 -648 0
-647 -648 0
643 647 648 0
c gate 649 -481 -483 0
-481 -649 0
-483 -649 0
481 483 649 0
c gate 650 -484 -649 0
-484 -650 0
-649 -650 0
484 649 650 0
c gate 651 -648 650 0
-648 -651 0
650 -651 0
648 -650 651 0
c gate 652 -480 -490 0
-480 -652 0
-490 -652 0
480 490 652 0
c gate 653 -491 -652 0
-491 -653 0
-652 -653 0
491 652 653 0
c gate 654 651 653 0
651 -654 0
653 -654 0
-651 -653 654 0
c gate 655 -633 654 0
-633 -655 0
654 -655 0
633 -654 655 0
c gate 656 -495 655 0
-495 -656 0
655 -656 0
495 -655 656 0
c gate 657 465 656 0
465 -657 0
656 -657 0
-465 -656 657 0
c gate 658 415 657 0
415 -658 0
657 -658 0
-415 -657 658 0
c gate 659 648 -650 0
648 -659 0
-650 -659 0
-648 650 659 0
c gate 660 -644 -646 0
-644 -660 0
-646 -660 0
644 646 660 0
c gate 661 -3 -13 0
-3 -661 0
-13 -661 0
3 13 661 0
c gate 662 -431 -661 0
-431 -662 0
-661 -662 0
431 661 662 0
c gate 663 1 11 0
1 -663 0
11 -663 0
-1 -11 663 0
c gate 664 637 663 0
637 -664 0
663 -664 0
-637 -663 664 0
c gate 665 -662 664 0
-662 -665 0
664 -665 0
662 -664 665 0
c gate 666 -647 665 0
-647 -666 0
665 -666 0
647 -665 666 0
c gate 667 -660 666 0
-660 -667 0
666 -667 0
660 -666 667 0
c gate 668 -651 667 0
-651 -668 0
667 -668 0
651 -667 668 0
c gate 669 -659 668 0
-659 -669 0
668 -669 0
659 -668 669 0
c gate 670 653 669 0
653 -670 0
669 -670 0
-653 -669 670 0
c gate 671 -658 -670 0
-658 -671 0
-670 -671 0
658 670 671 0
c gate 672 -632 671 0
-632 -672 0
671 -672 0
632 -671 672 0
c PO
-672 0
